proyfinal/src/viki/013/experimentInOfficeAgust.take6.output/c6e9dc74-e087-40f6-8f4e-151c2b587fe0.als.dat
{'cnf.clauses': '118081',
 'cnf.totvars': '69608',
 'conflict literals': '10',
 'conflicts': '8',
 'decisions': '5853',
 'memused.mb': '17.44',
 'outcome': 'UNSAT',
 'propagations': '31595',
 'restarts': '1',
 'solver.msecs': 32,
 'task.msecs': 71}
