proyfinal/src/viki/013/experimentInOfficeAgust.take6.output/c6e9dc74-e087-40f6-8f4e-151c2b587fe0.als.out
Reading from standard input... Use '--help' for help.
============================[ Problem Statistics ]=============================
|                                                                             |
|  Number of variables:         69608                                         |
|  Number of clauses:          118081                                         |
|  Parse time:                   0.02 s                                       |
|                                                                             |
============================[ Search Statistics ]==============================
| Conflicts |          ORIGINAL         |          LEARNT          | Progress |
|           |    Vars  Clauses Literals |    Limit  Clauses Lit/Cl |          |
===============================================================================
===============================================================================
restarts              : 1
conflicts             : 8              (249 /sec)
decisions             : 5853           (0.00 % random) (182025 /sec)
propagations          : 31595          (982584 /sec)
conflict literals     : 10             (0.00 % deleted)
Memory used           : 17.44 MB
CPU time              : 0.032155 s

UNSATISFIABLE
